227 678 685
244
202
163
134
166
136
115
81
82
83
84
85
86
137
168
169
138
116
139
170
194
171
140
117
109
110
118
141
172
173
142
119
143
174
175
144
120
121
145
176
177
146
122
123
147
178
196
179
148
124
111
112
125
149
180
150
181
182
151
152
183
184
153
126
127
154
185
186
155
128
187
156
129
157
188
189
158
130
159
190
197
198
191
160
131
108
107
27
106
105
104
103
101
100
99
98
58
59
60
61
24
62
63
64
25
65
66
26
67
68
69
70
71
28
29
30
72
1
31
32
33
34
36
75
113
133
162
135
114
164
192
201
225
226
227
228
229
221
222
252
251
250
249
248
247
246
245
243
255
256
257
258
259
260
285
295
306
327
326
325
324
323
322
341
340
339
338
375
374
373
418
419
376
377
378
379
420
381
382
383
384
385
386
387
388
389
424
425
426
468
482
506
521
520
518
517
513
548
580
595
637
638
669
685
723
722
750
758
761
762
764
765
766
805
804
843
873
890
889
909
938
963
936
935
929
863
797

